nN = 8;
nR = 24;
nH = 1;

a = [[18, 21, 23, 23, 21, 16, 25, 22, 21, 18, 15, 18, 20, 17, 21, 25, 25, 18, 24, 16, 17, 22, 21, 20], [17, 20, 19, 22, 21, 22, 21, 22, 20, 24, 22, 21, 21, 19, 23, 15, 25, 24, 20, 20, 25, 17, 22, 19], [24, 22, 16, 21, 16, 17, 22, 15, 16, 22, 24, 23, 25, 16, 24, 17, 16, 17, 16, 15, 21, 22, 20, 21], [15, 17, 16, 21, 17, 15, 24, 17, 18, 21, 25, 22, 17, 24, 22, 18, 16, 16, 16, 24, 19, 15, 16, 18], [15, 15, 23, 17, 16, 19, 16, 19, 18, 19, 23, 20, 21, 22, 22, 16, 19, 15, 17, 20, 20, 25, 25, 24], [23, 18, 25, 25, 20, 20, 16, 24, 18, 19, 18, 21, 19, 21, 17, 25, 18, 16, 21, 15, 21, 15, 18, 24], [17, 25, 16, 15, 23, 25, 23, 23, 25, 18, 18, 25, 19, 25, 22, 19, 16, 16, 18, 24, 19, 17, 22, 19], [21, 16, 16, 21, 23, 24, 20, 16, 22, 19, 18, 15, 23, 19, 22, 17, 15, 23, 25, 22, 25, 17, 18, 22]];
c = [[[0, 0, 0, 0, 0, 0, 0, 0, 0, 0, 0, 0, 0, 0, 0, 0, 0, 0, 0, 0, 0, 0, 0, 0], [33, 34, 38, 30, 44, 48, 31, 48, 30, 40, 30, 33, 36, 37, 42, 32, 43, 38, 49, 30, 34, 43, 35, 50], [34, 43, 45, 42, 47, 31, 37, 34, 32, 41, 34, 45, 46, 30, 31, 41, 35, 33, 48, 30, 38, 46, 49, 43], [50, 43, 35, 49, 31, 33, 36, 34, 33, 35, 46, 30, 39, 41, 36, 46, 33, 38, 49, 47, 40, 42, 30, 45], [44, 45, 36, 36, 38, 38, 48, 34, 33, 37, 43, 41, 47, 35, 45, 48, 32, 44, 31, 50, 37, 33, 40, 41], [45, 45, 42, 33, 45, 44, 36, 50, 32, 32, 35, 39, 38, 34, 30, 32, 37, 35, 31, 36, 46, 36, 44, 42], [34, 32, 34, 40, 46, 45, 38, 49, 45, 49, 49, 50, 32, 31, 44, 46, 36, 42, 39, 34, 36, 42, 49, 43], [50, 48, 38, 36, 32, 38, 36, 40, 37, 40, 45, 40, 43, 38, 43, 47, 34, 31, 49, 34, 37, 47, 49, 30]], [[0, 0, 0, 0, 0, 0, 0, 0, 0, 0, 0, 0, 0, 0, 0, 0, 0, 0, 0, 0, 0, 0, 0, 0], [0, 0, 0, 0, 0, 0, 0, 0, 0, 0, 0, 0, 0, 0, 0, 0, 0, 0, 0, 0, 0, 0, 0, 0], [37, 42, 34, 47, 39, 42, 48, 45, 46, 47, 32, 39, 40, 45, 39, 37, 36, 48, 46, 46, 50, 45, 31, 48], [44, 38, 31, 32, 36, 45, 37, 47, 39, 43, 45, 44, 37, 37, 38, 34, 40, 34, 49, 30, 36, 41, 45, 32], [44, 50, 47, 35, 32, 50, 42, 36, 30, 31, 37, 41, 47, 39, 49, 34, 38, 36, 39, 31, 31, 32, 48, 33], [48, 36, 46, 34, 44, 30, 47, 44, 41, 47, 37, 37, 44, 40, 33, 35, 49, 40, 36, 40, 50, 31, 49, 44], [42, 44, 35, 48, 34, 34, 45, 49, 38, 37, 50, 45, 31, 46, 46, 36, 35, 35, 50, 31, 39, 37, 48, 49], [40, 50, 37, 41, 44, 47, 47, 39, 40, 49, 30, 37, 30, 43, 43, 44, 47, 44, 42, 38, 48, 42, 33, 41]], [[0, 0, 0, 0, 0, 0, 0, 0, 0, 0, 0, 0, 0, 0, 0, 0, 0, 0, 0, 0, 0, 0, 0, 0], [0, 0, 0, 0, 0, 0, 0, 0, 0, 0, 0, 0, 0, 0, 0, 0, 0, 0, 0, 0, 0, 0, 0, 0], [0, 0, 0, 0, 0, 0, 0, 0, 0, 0, 0, 0, 0, 0, 0, 0, 0, 0, 0, 0, 0, 0, 0, 0], [40, 41, 40, 33, 30, 31, 49, 50, 46, 40, 31, 41, 44, 31, 36, 48, 41, 46, 47, 31, 36, 46, 37, 37], [47, 46, 50, 35, 34, 48, 36, 37, 50, 33, 31, 45, 36, 34, 46, 37, 39, 32, 31, 38, 37, 45, 49, 34], [34, 38, 46, 35, 33, 47, 33, 30, 32, 35, 44, 42, 39, 30, 45, 50, 33, 47, 43, 40, 36, 34, 50, 40], [34, 37, 35, 39, 37, 34, 42, 49, 46, 43, 39, 36, 39, 39, 33, 36, 39, 49, 40, 41, 36, 36, 45, 42], [50, 48, 32, 43, 48, 37, 43, 41, 48, 50, 43, 43, 40, 48, 48, 35, 32, 49, 45, 30, 38, 39, 47, 41]], [[0, 0, 0, 0, 0, 0, 0, 0, 0, 0, 0, 0, 0, 0, 0, 0, 0, 0, 0, 0, 0, 0, 0, 0], [0, 0, 0, 0, 0, 0, 0, 0, 0, 0, 0, 0, 0, 0, 0, 0, 0, 0, 0, 0, 0, 0, 0, 0], [0, 0, 0, 0, 0, 0, 0, 0, 0, 0, 0, 0, 0, 0, 0, 0, 0, 0, 0, 0, 0, 0, 0, 0], [0, 0, 0, 0, 0, 0, 0, 0, 0, 0, 0, 0, 0, 0, 0, 0, 0, 0, 0, 0, 0, 0, 0, 0], [36, 47, 47, 42, 43, 37, 44, 44, 47, 49, 47, 30, 40, 37, 40, 40, 35, 37, 33, 33, 41, 40, 49, 49], [32, 37, 48, 32, 40, 36, 31, 36, 47, 43, 32, 39, 31, 39, 44, 49, 39, 38, 45, 36, 43, 34, 33, 36], [49, 35, 35, 31, 49, 32, 46, 46, 49, 35, 45, 32, 50, 49, 40, 31, 49, 50, 37, 49, 47, 36, 38, 31], [39, 44, 44, 49, 30, 37, 46, 42, 32, 37, 35, 37, 35, 50, 48, 49, 48, 46, 42, 46, 32, 44, 49, 43]], [[0, 0, 0, 0, 0, 0, 0, 0, 0, 0, 0, 0, 0, 0, 0, 0, 0, 0, 0, 0, 0, 0, 0, 0], [0, 0, 0, 0, 0, 0, 0, 0, 0, 0, 0, 0, 0, 0, 0, 0, 0, 0, 0, 0, 0, 0, 0, 0], [0, 0, 0, 0, 0, 0, 0, 0, 0, 0, 0, 0, 0, 0, 0, 0, 0, 0, 0, 0, 0, 0, 0, 0], [0, 0, 0, 0, 0, 0, 0, 0, 0, 0, 0, 0, 0, 0, 0, 0, 0, 0, 0, 0, 0, 0, 0, 0], [0, 0, 0, 0, 0, 0, 0, 0, 0, 0, 0, 0, 0, 0, 0, 0, 0, 0, 0, 0, 0, 0, 0, 0], [49, 37, 42, 44, 46, 47, 50, 46, 44, 43, 39, 43, 48, 33, 43, 38, 36, 48, 38, 46, 39, 44, 31, 41], [39, 47, 46, 37, 38, 44, 35, 33, 39, 31, 38, 45, 38, 49, 30, 47, 47, 47, 36, 35, 50, 33, 30, 40], [46, 46, 31, 31, 45, 40, 41, 42, 33, 38, 41, 46, 34, 31, 38, 32, 42, 35, 47, 50, 33, 45, 47, 33]], [[0, 0, 0, 0, 0, 0, 0, 0, 0, 0, 0, 0, 0, 0, 0, 0, 0, 0, 0, 0, 0, 0, 0, 0], [0, 0, 0, 0, 0, 0, 0, 0, 0, 0, 0, 0, 0, 0, 0, 0, 0, 0, 0, 0, 0, 0, 0, 0], [0, 0, 0, 0, 0, 0, 0, 0, 0, 0, 0, 0, 0, 0, 0, 0, 0, 0, 0, 0, 0, 0, 0, 0], [0, 0, 0, 0, 0, 0, 0, 0, 0, 0, 0, 0, 0, 0, 0, 0, 0, 0, 0, 0, 0, 0, 0, 0], [0, 0, 0, 0, 0, 0, 0, 0, 0, 0, 0, 0, 0, 0, 0, 0, 0, 0, 0, 0, 0, 0, 0, 0], [0, 0, 0, 0, 0, 0, 0, 0, 0, 0, 0, 0, 0, 0, 0, 0, 0, 0, 0, 0, 0, 0, 0, 0], [38, 47, 49, 36, 33, 41, 30, 47, 33, 40, 44, 43, 37, 48, 40, 38, 45, 36, 47, 33, 44, 40, 47, 30], [46, 40, 41, 49, 44, 50, 44, 48, 47, 40, 37, 33, 37, 44, 32, 39, 50, 33, 46, 37, 42, 37, 33, 32]], [[0, 0, 0, 0, 0, 0, 0, 0, 0, 0, 0, 0, 0, 0, 0, 0, 0, 0, 0, 0, 0, 0, 0, 0], [0, 0, 0, 0, 0, 0, 0, 0, 0, 0, 0, 0, 0, 0, 0, 0, 0, 0, 0, 0, 0, 0, 0, 0], [0, 0, 0, 0, 0, 0, 0, 0, 0, 0, 0, 0, 0, 0, 0, 0, 0, 0, 0, 0, 0, 0, 0, 0], [0, 0, 0, 0, 0, 0, 0, 0, 0, 0, 0, 0, 0, 0, 0, 0, 0, 0, 0, 0, 0, 0, 0, 0], [0, 0, 0, 0, 0, 0, 0, 0, 0, 0, 0, 0, 0, 0, 0, 0, 0, 0, 0, 0, 0, 0, 0, 0], [0, 0, 0, 0, 0, 0, 0, 0, 0, 0, 0, 0, 0, 0, 0, 0, 0, 0, 0, 0, 0, 0, 0, 0], [0, 0, 0, 0, 0, 0, 0, 0, 0, 0, 0, 0, 0, 0, 0, 0, 0, 0, 0, 0, 0, 0, 0, 0], [44, 41, 35, 47, 35, 48, 43, 41, 36, 40, 39, 31, 39, 45, 44, 30, 37, 39, 30, 49, 48, 36, 32, 34]], [[0, 0, 0, 0, 0, 0, 0, 0, 0, 0, 0, 0, 0, 0, 0, 0, 0, 0, 0, 0, 0, 0, 0, 0], [0, 0, 0, 0, 0, 0, 0, 0, 0, 0, 0, 0, 0, 0, 0, 0, 0, 0, 0, 0, 0, 0, 0, 0], [0, 0, 0, 0, 0, 0, 0, 0, 0, 0, 0, 0, 0, 0, 0, 0, 0, 0, 0, 0, 0, 0, 0, 0], [0, 0, 0, 0, 0, 0, 0, 0, 0, 0, 0, 0, 0, 0, 0, 0, 0, 0, 0, 0, 0, 0, 0, 0], [0, 0, 0, 0, 0, 0, 0, 0, 0, 0, 0, 0, 0, 0, 0, 0, 0, 0, 0, 0, 0, 0, 0, 0], [0, 0, 0, 0, 0, 0, 0, 0, 0, 0, 0, 0, 0, 0, 0, 0, 0, 0, 0, 0, 0, 0, 0, 0], [0, 0, 0, 0, 0, 0, 0, 0, 0, 0, 0, 0, 0, 0, 0, 0, 0, 0, 0, 0, 0, 0, 0, 0], [0, 0, 0, 0, 0, 0, 0, 0, 0, 0, 0, 0, 0, 0, 0, 0, 0, 0, 0, 0, 0, 0, 0, 0]]];

q = [[[21], [11], [12], [23], [24], [20], [21], [16], [19], [11], [21], [15], [5], [17], [20], [25], [20], [21], [11], [19], [9], [14], [20], [5]], [[6], [24], [8], [7], [12], [22], [13], [17], [6], [16], [22], [18], [23], [9], [22], [20], [18], [24], [7], [15], [9], [14], [20], [6]], [[5], [16], [13], [7], [21], [7], [19], [25], [8], [9], [16], [8], [21], [23], [9], [16], [7], [8], [24], [22], [12], [15], [17], [5]], [[23], [18], [18], [7], [9], [10], [13], [16], [22], [12], [18], [5], [15], [14], [23], [21], [20], [10], [14], [17], [21], [8], [7], [15]], [[21], [23], [10], [15], [8], [25], [15], [5], [11], [23], [12], [22], [21], [18], [24], [15], [25], [12], [15], [9], [25], [13], [19], [10]], [[17], [24], [9], [14], [25], [13], [22], [10], [22], [20], [19], [11], [9], [24], [14], [21], [21], [23], [9], [23], [13], [11], [18], [6]], [[6], [18], [22], [10], [7], [23], [8], [12], [23], [9], [18], [24], [14], [24], [5], [8], [14], [21], [21], [17], [19], [19], [15], [15]], [[7], [19], [25], [12], [17], [21], [20], [25], [20], [13], [10], [5], [12], [23], [15], [14], [10], [13], [25], [6], [13], [14], [21], [18]]];
Q = [[40], [35], [33], [35], [39], [39], [37], [37]];
